# Solution for model count
# Objective value = 10
z#1 0
z#2 0
z#3 1
z#4 0
z#5 1
z#6 0
z#7 0
z#8 0
z#9 0
z#10 1
z#11 1
z#12 1
z#13 0
z#14 0
z#15 1
z#16 0
z#17 1
z#18 0
z#19 0
z#20 1
z#21 0
z#22 0
z#23 1
z#24 1
x#24 30
x#23 55
x#22 0
x#21 0
x#20 1046
x#19 0
x#18 0
x#17 1093
x#16 0
x#15 3006
x#14 0
x#13 0
x#12 96
x#11 182
x#10 18
x#9 0
x#8 0
x#7 0
x#6 0
x#5 2761
x#4 0
x#3 1713
x#2 0
x#1 0
